
  12   12
  10   10   10   10   10   10   10   10   10   10   10   10

   0   0   0   0   0   0   0   0   0   0   0   0   0   6 2 3 5 6 7 11 
   9   1   0   0   0   0   0   0   0   0   1   1   0   1 4 
   4   9   0   1   0   0   0   0   1   0   0   0   1   1 4 
   4   6   0   6   1   0   0   0   0   0   9   0   0   2 9 8 
   9   0   1   0   4   0   1   1   0   0   0   0   0   2 10 9 
   5   0   0   0   8   0   0   9   0   0   0  10   6   2 9 8 
   8   0   0   6   0   1   0   0   6   0   0   0   0   1 8 
   6   0   8   0   0   0   0   0   0   0   0   4   0   1 12
   7   0   0   0   7   9   0   5   0   0   0   0   0   1 12
   6   0   0   7   0   0   9   0   8   0   0   0   8   1 12
   1   4   6   0   0   0   0   0   5   5   0   0   0   1 12
   0   0   0   0   0   0   0   0   0   0   0   0   0   0 
